26783
1 0 1 1 1 1 0 1 1 1 1 1 1 0 1 1 1 1 1 1 1 1 1 0 1 1 0 1 1 1
19 20 21 8 9 3 8 3 24 25 9 4 0 14 9 2 14 16 16 20 16 16 4 19 17 8 21 0 3 14 4 5 7 3 2 16 7 24 24 10 14 12 12 7 3 22 12 5 22 19 17 14 24 4 17 4 5 5 14 15 17 27 22 25 15 21 5 14 24 10 18 3 2 8 0 15 22 17 3 14 5 25 11 24 20 5 15 2 24 15 9 29 0 8 29 17 20 29 11 3 2 9 19 11 27 7 17 11 11 9 25 17 9 21 7 11 20 19 11 18 0 10 10 22 28 15 21 20 8 2 10 12 12 9 16 28 0 5 14 7 2 17 27 11 11 19 11 8 18 9 8 11 5 22 4 25 0 24 12 17 21 22 19 17 11 0 2 5 29 22 2 14 24 20 25 10 2 14 27 4 3 4 28 22 28 15 29 4 28 29 16 8 12 20 8 10 4 18 27 8